Route #1: 1 18 19 31 37 38 51 56 62 72 71 84 96 97 85 73 74 68 63 57 58 64 75 80 86 98 99 92 100 93 87 76 69 61 60 59 53 45 46 47 41 48 49 55 54 66 65 70 81 88 82 94 89 77 90 91 95 83 79 78 67 50 43 42 30 24 36 23 29 22 35 21 16 28 34 40 39 52 44 33 32 26 20 8 7 2 3 13 14 27 15 9 4 5 10 11 12 6 17 25
Cost 46936
